(set-info :smt-lib-version 2.6)
(set-logic UF)
(set-info :source |
Generated by: Andrew Reynolds
Generated on: 2017-04-28
Generator: Sledgehammer, converted to v2.6 by CVC4
Application: Verfication goals in Isabelle
Target solver: CVC4, Z3
Publications: "A Decision Procedure for (Co)Datatypes" by Andrew Reynolds and Jasmin Blanchette, CADE 2015.
|)
(set-info :license "https://creativecommons.org/licenses/by/4.0/")
(set-info :category "industrial")
(set-info :status unsat)


(declare-sort A$ 0)
(declare-sort Nat$ 0)
(declare-sort Enat_bool_fun$ 0)
(declare-sort Enat_enat_fun$ 0)
(declare-sort Enat_enat_bool_fun_fun$ 0)
(declare-sort A_llist$ 0)
(declare-fun lNil$ () A_llist$)
(declare-fun lhd$ (A_llist$) A$)
(declare-fun ltl$ (A_llist$) A_llist$)
(declare-fun lCons$ (A$ A_llist$) A_llist$)
(declare-sort Nat_option$ 0)
(declare-sort Enat$ 0)
(declare-fun none$ () Nat_option$)
(declare-fun the$ (Nat_option$) Nat$)
(declare-fun some$ (Nat$) Nat_option$)
(declare-fun rep_enat$ (Enat$) Nat_option$)
(declare-fun abs_enat$ (Nat_option$) Enat$)
(declare-fun xs$ () A_llist$)
(declare-fun ys$ () A_llist$)
(declare-fun zs$ () A_llist$)
(declare-fun min$ (Enat$) Enat_enat_fun$)
(declare-fun xs$a () A_llist$)
(declare-fun less$ (Enat$) Enat_bool_fun$)
(declare-fun plus$ (Enat$) Enat_enat_fun$)
(declare-fun zero$ () Enat$)
(declare-fun ldrop$ (Enat$ A_llist$) A_llist$)
(declare-fun ltake$ (Enat$ A_llist$) A_llist$)
(declare-fun minus$ (Enat$) Enat_enat_fun$)
(declare-fun fun_app$ (Enat_bool_fun$ Enat$) Bool)
(declare-fun lappend$ (A_llist$ A_llist$) A_llist$)
(declare-fun less_eq$ (Enat$) Enat_bool_fun$)
(declare-fun lfinite$ (A_llist$) Bool)
(declare-fun llength$ (A_llist$) Enat$)
(declare-fun lprefix$ (A_llist$ A_llist$) Bool)
(declare-fun fun_app$a (Enat_enat_fun$ Enat$) Enat$)
(declare-fun fun_app$b (Enat_enat_bool_fun_fun$ Enat$) Enat_bool_fun$)
(declare-fun infinity$ () Enat$)
(assert (not (= (lappend$ (lappend$ (ltake$ (llength$ ys$) xs$) (ldrop$ (llength$ ys$) xs$)) xs$a) (lappend$ ys$ zs$))))
(assert (= (lappend$ xs$ xs$a) (lappend$ ys$ zs$)))
(assert (=> (forall ((?v0 A_llist$)) (=> (= (lappend$ xs$ ?v0) (lappend$ ys$ zs$)) false) ) false))
(assert (not (or (lprefix$ xs$ ys$) (lprefix$ ys$ xs$))))
(assert (lprefix$ xs$ (lappend$ ys$ zs$)))
(assert (forall ((?v0 A_llist$) (?v1 A_llist$) (?v2 A_llist$)) (= (lappend$ (lappend$ ?v0 ?v1) ?v2) (lappend$ ?v0 (lappend$ ?v1 ?v2))) ))
(assert (forall ((?v0 Enat$) (?v1 A_llist$)) (= (lappend$ (ltake$ ?v0 ?v1) (ldrop$ ?v0 ?v1)) ?v1) ))
(assert (not (lprefix$ xs$ ys$)))
(assert (not (lprefix$ ys$ xs$)))
(assert (forall ((?v0 Enat$) (?v1 A_llist$) (?v2 A_llist$)) (=> (fun_app$ (less_eq$ ?v0) (llength$ ?v1)) (= (ltake$ ?v0 (lappend$ ?v1 ?v2)) (ltake$ ?v0 ?v1))) ))
(assert (forall ((?v0 Enat$) (?v1 Enat$) (?v2 A_llist$)) (= (ltake$ (fun_app$a (plus$ ?v0) ?v1) ?v2) (lappend$ (ltake$ ?v0 ?v2) (ltake$ ?v1 (ldrop$ ?v0 ?v2)))) ))
(assert (forall ((?v0 Enat$) (?v1 A_llist$) (?v2 A_llist$)) (= (ltake$ ?v0 (lappend$ ?v1 ?v2)) (lappend$ (ltake$ ?v0 ?v1) (ltake$ (fun_app$a (minus$ ?v0) (llength$ ?v1)) ?v2))) ))
(assert (forall ((?v0 A_llist$) (?v1 A_llist$)) (= (llength$ (lappend$ ?v0 ?v1)) (fun_app$a (plus$ (llength$ ?v0)) (llength$ ?v1))) ))
(assert (forall ((?v0 Enat$) (?v1 A_llist$)) (= (llength$ (ltake$ ?v0 ?v1)) (fun_app$a (min$ ?v0) (llength$ ?v1))) ))
(assert (forall ((?v0 A_llist$) (?v1 Enat$)) (! (=> (fun_app$ (less_eq$ (llength$ ?v0)) ?v1) (= (ltake$ ?v1 ?v0) ?v0)) :pattern ((ltake$ ?v1 ?v0)))))
(assert (forall ((?v0 Enat$) (?v1 Enat$) (?v2 A_llist$)) (= (ltake$ ?v0 (ldrop$ ?v1 ?v2)) (ldrop$ ?v1 (ltake$ (fun_app$a (plus$ ?v0) ?v1) ?v2))) ))
(assert (forall ((?v0 Enat$) (?v1 Enat$) (?v2 A_llist$)) (= (ldrop$ ?v0 (ltake$ ?v1 ?v2)) (ltake$ (fun_app$a (minus$ ?v1) ?v0) (ldrop$ ?v0 ?v2))) ))
(assert (forall ((?v0 A_llist$) (?v1 A_llist$) (?v2 A_llist$) (?v3 A_llist$)) (=> (= (llength$ ?v0) (llength$ ?v1)) (= (= (lappend$ ?v0 ?v2) (lappend$ ?v1 ?v3)) (and (= ?v0 ?v1) (=> (lfinite$ ?v0) (= ?v2 ?v3))))) ))
(assert (forall ((?v0 A_llist$)) (= (ldrop$ zero$ ?v0) ?v0) ))
(assert (forall ((?v0 A_llist$)) (lprefix$ ?v0 ?v0) ))
(assert (forall ((?v0 A_llist$)) (lprefix$ ?v0 ?v0) ))
(assert (forall ((?v0 Enat$) (?v1 A_llist$)) (lprefix$ (ltake$ ?v0 ?v1) ?v1) ))
(assert (forall ((?v0 A_llist$) (?v1 A_llist$)) (= (lfinite$ (lappend$ ?v0 ?v1)) (and (lfinite$ ?v0) (lfinite$ ?v1))) ))
(assert (forall ((?v0 Enat$) (?v1 Enat$) (?v2 A_llist$)) (= (ldrop$ ?v0 (ldrop$ ?v1 ?v2)) (ldrop$ (fun_app$a (plus$ ?v0) ?v1) ?v2)) ))
(assert (forall ((?v0 Enat$) (?v1 Enat$) (?v2 A_llist$)) (= (ltake$ ?v0 (ltake$ ?v1 ?v2)) (ltake$ (fun_app$a (min$ ?v0) ?v1) ?v2)) ))
(assert (forall ((?v0 A_llist$) (?v1 A_llist$) (?v2 A_llist$)) (= (lprefix$ (lappend$ ?v0 ?v1) (lappend$ ?v0 ?v2)) (=> (lfinite$ ?v0) (lprefix$ ?v1 ?v2))) ))
(assert (forall ((?v0 Enat$) (?v1 A_llist$) (?v2 Enat$)) (= (lprefix$ (ltake$ ?v0 ?v1) (ltake$ ?v2 ?v1)) (or (fun_app$ (less_eq$ ?v0) ?v2) (fun_app$ (less_eq$ (llength$ ?v1)) ?v2))) ))
(assert (forall ((?v0 Enat_enat_bool_fun_fun$) (?v1 Enat$) (?v2 Enat$)) (=> (and (forall ((?v3 Enat$) (?v4 Enat$)) (=> (fun_app$ (less_eq$ ?v3) ?v4) (fun_app$ (fun_app$b ?v0 ?v3) ?v4)) ) (=> (fun_app$ (fun_app$b ?v0 ?v1) ?v2) (fun_app$ (fun_app$b ?v0 ?v2) ?v1))) (fun_app$ (fun_app$b ?v0 ?v2) ?v1)) ))
(assert (forall ((?v0 A_llist$) (?v1 A_llist$)) (=> (and (lprefix$ ?v0 ?v1) (lprefix$ ?v1 ?v0)) (= ?v0 ?v1)) ))
(assert (forall ((?v0 A_llist$) (?v1 A_llist$)) (=> (and (lprefix$ ?v0 ?v1) (lprefix$ ?v1 ?v0)) (= ?v0 ?v1)) ))
(assert (forall ((?v0 A_llist$) (?v1 A_llist$) (?v2 A_llist$)) (=> (and (lprefix$ ?v0 ?v1) (lprefix$ ?v2 ?v1)) (or (lprefix$ ?v0 ?v2) (lprefix$ ?v2 ?v0))) ))
(assert (forall ((?v0 A_llist$) (?v1 A_llist$) (?v2 A_llist$)) (=> (and (lprefix$ ?v0 ?v1) (lprefix$ ?v1 ?v2)) (lprefix$ ?v0 ?v2)) ))
(assert (forall ((?v0 A_llist$) (?v1 A_llist$) (?v2 A_llist$)) (=> (and (lprefix$ ?v0 ?v1) (lprefix$ ?v1 ?v2)) (lprefix$ ?v0 ?v2)) ))
(assert (forall ((?v0 A_llist$) (?v1 A_llist$)) (=> (and (lprefix$ ?v0 ?v1) (lfinite$ ?v1)) (lfinite$ ?v0)) ))
(assert (forall ((?v0 A_llist$) (?v1 A_llist$)) (! (=> (not (lfinite$ ?v0)) (= (lprefix$ ?v0 ?v1) (= ?v0 ?v1))) :pattern ((lprefix$ ?v0 ?v1)))))
(assert (forall ((?v0 A_llist$) (?v1 A_llist$)) (=> (lprefix$ ?v0 ?v1) (fun_app$ (less_eq$ (llength$ ?v0)) (llength$ ?v1))) ))
(assert (forall ((?v0 A_llist$) (?v1 A_llist$)) (! (=> (not (lfinite$ ?v0)) (= (lappend$ ?v0 ?v1) ?v0)) :pattern ((lappend$ ?v0 ?v1)))))
(assert (forall ((?v0 A_llist$) (?v1 A_llist$)) (lprefix$ ?v0 (lappend$ ?v0 ?v1)) ))
(assert (forall ((?v0 A_llist$) (?v1 A_llist$) (?v2 A_llist$)) (=> (lprefix$ ?v0 ?v1) (lprefix$ (lappend$ ?v2 ?v0) (lappend$ ?v2 ?v1))) ))
(assert (forall ((?v0 A_llist$) (?v1 A_llist$) (?v2 A_llist$)) (=> (and (lprefix$ (lappend$ ?v0 ?v1) ?v2) (forall ((?v3 A_llist$)) (=> (= ?v2 (lappend$ ?v0 ?v3)) false) )) false) ))
(assert (forall ((?v0 A_llist$) (?v1 A_llist$)) (= (lprefix$ ?v0 ?v1) (exists ((?v2 A_llist$)) (= ?v1 (lappend$ ?v0 ?v2)) )) ))
(assert (forall ((?v0 A_llist$) (?v1 A_llist$)) (=> (and (lprefix$ ?v0 ?v1) (= (llength$ ?v0) (llength$ ?v1))) (= ?v0 ?v1)) ))
(assert (forall ((?v0 Enat$) (?v1 A_llist$) (?v2 A_llist$) (?v3 Enat$)) (=> (and (= (ltake$ ?v0 ?v1) (ltake$ ?v0 ?v2)) (fun_app$ (less_eq$ ?v3) ?v0)) (= (ltake$ ?v3 ?v1) (ltake$ ?v3 ?v2))) ))
(assert (forall ((?v0 A_llist$) (?v1 Enat$) (?v2 A_llist$)) (=> (fun_app$ (less_eq$ (llength$ ?v0)) ?v1) (= (ltake$ ?v1 (lappend$ ?v0 ?v2)) (lappend$ ?v0 (ltake$ (fun_app$a (minus$ ?v1) (llength$ ?v0)) ?v2)))) ))
(assert (forall ((?v0 Enat$)) (= (fun_app$a (min$ ?v0) zero$) zero$) ))
(assert (forall ((?v0 Enat$)) (= (fun_app$a (plus$ zero$) ?v0) ?v0) ))
(assert (forall ((?v0 Enat$)) (= (fun_app$a (plus$ ?v0) zero$) ?v0) ))
(assert (forall ((?v0 Enat$)) (= (fun_app$ (less_eq$ ?v0) zero$) (= ?v0 zero$)) ))
(assert (forall ((?v0 Enat$)) (= (fun_app$a (minus$ zero$) ?v0) zero$) ))
(assert (forall ((?v0 Enat$)) (= (fun_app$a (minus$ ?v0) zero$) ?v0) ))
(assert (forall ((?v0 Enat$)) (= (fun_app$a (min$ zero$) ?v0) zero$) ))
(assert (forall ((?v0 Enat$)) (= (= zero$ ?v0) (= ?v0 zero$)) ))
(assert (forall ((?v0 Enat$) (?v1 Enat$) (?v2 Enat$) (?v3 Enat$)) (=> (and (= ?v0 ?v1) (= ?v2 ?v3)) (= (fun_app$a (plus$ ?v0) ?v2) (fun_app$a (plus$ ?v1) ?v3))) ))
(assert (forall ((?v0 Enat$) (?v1 Enat$)) (= (fun_app$a (plus$ ?v0) ?v1) (fun_app$a (plus$ ?v1) ?v0)) ))
(assert (forall ((?v0 Enat$) (?v1 Enat$) (?v2 Enat$)) (= (fun_app$a (plus$ ?v0) (fun_app$a (plus$ ?v1) ?v2)) (fun_app$a (plus$ ?v1) (fun_app$a (plus$ ?v0) ?v2))) ))
(assert (forall ((?v0 Enat$) (?v1 Enat$) (?v2 Enat$)) (= (fun_app$a (plus$ (fun_app$a (plus$ ?v0) ?v1)) ?v2) (fun_app$a (plus$ ?v0) (fun_app$a (plus$ ?v1) ?v2))) ))
(assert (forall ((?v0 Enat$) (?v1 Enat$) (?v2 Enat$)) (= (fun_app$a (plus$ (fun_app$a (plus$ ?v0) ?v1)) ?v2) (fun_app$a (plus$ ?v0) (fun_app$a (plus$ ?v1) ?v2))) ))
(assert (forall ((?v0 Enat$) (?v1 Enat$) (?v2 Enat$)) (=> (fun_app$ (less_eq$ ?v0) ?v1) (fun_app$ (less_eq$ (fun_app$a (plus$ ?v2) ?v0)) (fun_app$a (plus$ ?v2) ?v1))) ))
(assert (forall ((?v0 Enat$) (?v1 Enat$) (?v2 Enat$)) (=> (fun_app$ (less_eq$ ?v0) ?v1) (fun_app$ (less_eq$ (fun_app$a (plus$ ?v0) ?v2)) (fun_app$a (plus$ ?v1) ?v2))) ))
(assert (forall ((?v0 Enat$) (?v1 Enat$) (?v2 Enat$) (?v3 Enat$)) (=> (and (fun_app$ (less_eq$ ?v0) ?v1) (fun_app$ (less_eq$ ?v2) ?v3)) (fun_app$ (less_eq$ (fun_app$a (plus$ ?v0) ?v2)) (fun_app$a (plus$ ?v1) ?v3))) ))
(assert (forall ((?v0 Enat$) (?v1 Enat$) (?v2 Enat$) (?v3 Enat$)) (=> (and (fun_app$ (less_eq$ ?v0) ?v1) (fun_app$ (less_eq$ ?v2) ?v3)) (fun_app$ (less_eq$ (fun_app$a (plus$ ?v0) ?v2)) (fun_app$a (plus$ ?v1) ?v3))) ))
(assert (forall ((?v0 Enat$) (?v1 Enat$) (?v2 Enat$) (?v3 Enat$)) (=> (and (fun_app$ (less_eq$ ?v0) ?v1) (= ?v2 ?v3)) (fun_app$ (less_eq$ (fun_app$a (plus$ ?v0) ?v2)) (fun_app$a (plus$ ?v1) ?v3))) ))
(assert (forall ((?v0 Enat$) (?v1 Enat$) (?v2 Enat$) (?v3 Enat$)) (=> (and (= ?v0 ?v1) (fun_app$ (less_eq$ ?v2) ?v3)) (fun_app$ (less_eq$ (fun_app$a (plus$ ?v0) ?v2)) (fun_app$a (plus$ ?v1) ?v3))) ))
(assert (forall ((?v0 Enat$)) (= (fun_app$a (plus$ zero$) ?v0) ?v0) ))
(assert (forall ((?v0 Enat$)) (= (fun_app$a (plus$ ?v0) zero$) ?v0) ))
(assert (forall ((?v0 Enat$)) (fun_app$ (less_eq$ zero$) ?v0) ))
(assert (forall ((?v0 Enat$) (?v1 Enat$) (?v2 Enat$)) (= (fun_app$ (less_eq$ ?v0) (fun_app$a (min$ ?v1) ?v2)) (and (fun_app$ (less_eq$ ?v0) ?v1) (fun_app$ (less_eq$ ?v0) ?v2))) ))
(assert (forall ((?v0 Enat$)) (= (fun_app$a (min$ ?v0) ?v0) ?v0) ))
(assert (forall ((?v0 Enat$) (?v1 Enat$)) (= (fun_app$a (min$ ?v0) (fun_app$a (min$ ?v0) ?v1)) (fun_app$a (min$ ?v0) ?v1)) ))
(assert (forall ((?v0 Enat$) (?v1 Enat$)) (= (fun_app$a (min$ (fun_app$a (min$ ?v0) ?v1)) ?v1) (fun_app$a (min$ ?v0) ?v1)) ))
(assert (forall ((?v0 Enat$) (?v1 Enat$) (?v2 Enat$)) (= (fun_app$a (min$ (fun_app$a (min$ ?v0) ?v1)) ?v2) (fun_app$a (min$ ?v0) (fun_app$a (min$ ?v1) ?v2))) ))
(assert (forall ((?v0 Enat$) (?v1 Enat$) (?v2 Enat$)) (= (fun_app$a (min$ ?v0) (fun_app$a (min$ ?v1) ?v2)) (fun_app$a (min$ ?v1) (fun_app$a (min$ ?v0) ?v2))) ))
(assert (forall ((?v0 Enat$) (?v1 Enat$)) (= (fun_app$a (min$ ?v0) ?v1) (fun_app$a (min$ ?v1) ?v0)) ))
(assert (forall ((?v0 Enat$) (?v1 Enat$) (?v2 Enat$)) (= (fun_app$ (less_eq$ (fun_app$a (min$ ?v0) ?v1)) ?v2) (or (fun_app$ (less_eq$ ?v0) ?v2) (fun_app$ (less_eq$ ?v1) ?v2))) ))
(assert (forall ((?v0 Enat$) (?v1 Enat$)) (! (= (fun_app$ (less_eq$ ?v0) ?v1) (= (fun_app$a (min$ ?v1) ?v0) ?v0)) :pattern ((fun_app$ (less_eq$ ?v0) ?v1)))))
(assert (forall ((?v0 Enat$) (?v1 Enat$)) (! (= (fun_app$ (less_eq$ ?v0) ?v1) (= (fun_app$a (min$ ?v0) ?v1) ?v0)) :pattern ((fun_app$ (less_eq$ ?v0) ?v1)))))
(assert (forall ((?v0 Enat$) (?v1 Enat$)) (! (= (fun_app$ (less_eq$ ?v0) ?v1) (= ?v0 (fun_app$a (min$ ?v0) ?v1))) :pattern ((fun_app$ (less_eq$ ?v0) ?v1)))))
(assert (forall ((?v0 Enat$) (?v1 Enat$)) (=> (= ?v0 (fun_app$a (min$ ?v0) ?v1)) (fun_app$ (less_eq$ ?v0) ?v1)) ))
(assert (forall ((?v0 Enat$) (?v1 Enat$) (?v2 Enat$)) (=> (and (fun_app$ (less_eq$ ?v0) (fun_app$a (min$ ?v1) ?v2)) (=> (and (fun_app$ (less_eq$ ?v0) ?v1) (fun_app$ (less_eq$ ?v0) ?v2)) false)) false) ))
(assert (forall ((?v0 Enat$) (?v1 Enat$)) (=> (and (fun_app$ (less_eq$ ?v0) ?v1) (=> (= ?v0 (fun_app$a (min$ ?v0) ?v1)) false)) false) ))
(assert (forall ((?v0 Enat$) (?v1 Enat$) (?v2 Enat$) (?v3 Enat$)) (=> (and (fun_app$ (less_eq$ ?v0) ?v1) (fun_app$ (less_eq$ ?v2) ?v3)) (fun_app$ (less_eq$ (fun_app$a (min$ ?v0) ?v2)) (fun_app$a (min$ ?v1) ?v3))) ))
(assert (forall ((?v0 Enat$) (?v1 Enat$) (?v2 Enat$)) (=> (and (fun_app$ (less_eq$ ?v0) ?v1) (fun_app$ (less_eq$ ?v0) ?v2)) (fun_app$ (less_eq$ ?v0) (fun_app$a (min$ ?v1) ?v2))) ))
(assert (forall ((?v0 Enat$) (?v1 Enat$)) (=> (fun_app$ (less_eq$ ?v0) ?v1) (= (fun_app$a (min$ ?v1) ?v0) ?v0)) ))
(assert (forall ((?v0 Enat$) (?v1 Enat$)) (=> (fun_app$ (less_eq$ ?v0) ?v1) (= (fun_app$a (min$ ?v0) ?v1) ?v0)) ))
(assert (forall ((?v0 Enat$) (?v1 Enat$) (?v2 Enat$)) (=> (fun_app$ (less_eq$ ?v0) ?v1) (fun_app$ (less_eq$ (fun_app$a (min$ ?v2) ?v0)) ?v1)) ))
(assert (forall ((?v0 Enat$) (?v1 Enat$) (?v2 Enat$)) (=> (fun_app$ (less_eq$ ?v0) ?v1) (fun_app$ (less_eq$ (fun_app$a (min$ ?v0) ?v2)) ?v1)) ))
(assert (forall ((?v0 Enat$) (?v1 Enat$)) (fun_app$ (less_eq$ (fun_app$a (min$ ?v0) ?v1)) ?v1) ))
(assert (forall ((?v0 Enat$) (?v1 Enat$)) (fun_app$ (less_eq$ (fun_app$a (min$ ?v0) ?v1)) ?v0) ))
(assert (forall ((?v0 Enat$)) (fun_app$ (less_eq$ ?v0) ?v0) ))
(assert (forall ((?v0 Enat$) (?v1 Enat$)) (= (= (fun_app$a (min$ ?v0) ?v1) zero$) (or (= ?v0 zero$) (= ?v1 zero$))) ))
(assert (forall ((?v0 Enat$) (?v1 Enat$) (?v2 Enat$)) (=> (and (fun_app$ (less_eq$ ?v0) ?v1) (fun_app$ (less_eq$ ?v0) ?v2)) (= (= (fun_app$a (minus$ ?v1) ?v0) (fun_app$a (minus$ ?v2) ?v0)) (= ?v1 ?v2))) ))
(assert (forall ((?v0 Enat$)) (fun_app$ (less_eq$ ?v0) ?v0) ))
(assert (forall ((?v0 Enat$) (?v1 Enat$)) (or (fun_app$ (less_eq$ ?v0) ?v1) (fun_app$ (less_eq$ ?v1) ?v0)) ))
(assert (forall ((?v0 Enat$) (?v1 Enat$)) (! (=> (fun_app$ (less_eq$ ?v0) ?v1) (= (fun_app$ (less_eq$ ?v1) ?v0) (= ?v1 ?v0))) :pattern ((fun_app$ (less_eq$ ?v1) ?v0)))))
(assert (forall ((?v0 Enat$) (?v1 Enat$) (?v2 Enat$)) (=> (and (fun_app$ (less_eq$ ?v0) ?v1) (fun_app$ (less_eq$ ?v1) ?v2)) (fun_app$ (less_eq$ ?v0) ?v2)) ))
(assert (forall ((?v0 Enat$) (?v1 Enat$) (?v2 Enat$)) (=> (and (fun_app$ (less_eq$ ?v0) ?v1) (fun_app$ (less_eq$ ?v1) ?v2)) (fun_app$ (less_eq$ ?v0) ?v2)) ))
(assert (forall ((?v0 Enat$) (?v1 Enat$) (?v2 Enat$)) (=> (and (fun_app$ (less_eq$ ?v0) ?v1) (fun_app$ (less_eq$ ?v2) ?v0)) (fun_app$ (less_eq$ ?v2) ?v1)) ))
(assert (forall ((?v0 Enat$) (?v1 Enat$)) (=> (and (fun_app$ (less_eq$ ?v0) ?v1) (fun_app$ (less_eq$ ?v1) ?v0)) (= ?v0 ?v1)) ))
(assert (forall ((?v0 Enat$) (?v1 Enat$)) (=> (and (fun_app$ (less_eq$ ?v0) ?v1) (fun_app$ (less_eq$ ?v1) ?v0)) (= ?v0 ?v1)) ))
(assert (forall ((?v0 Enat$) (?v1 Enat$)) (=> (and (fun_app$ (less_eq$ ?v0) ?v1) (fun_app$ (less_eq$ ?v1) ?v0)) (= ?v1 ?v0)) ))
(assert (forall ((?v0 Enat$) (?v1 Enat_enat_fun$) (?v2 Enat$) (?v3 Enat$)) (=> (and (fun_app$ (less_eq$ ?v0) (fun_app$a ?v1 ?v2)) (and (fun_app$ (less_eq$ ?v2) ?v3) (forall ((?v4 Enat$) (?v5 Enat$)) (=> (fun_app$ (less_eq$ ?v4) ?v5) (fun_app$ (less_eq$ (fun_app$a ?v1 ?v4)) (fun_app$a ?v1 ?v5))) ))) (fun_app$ (less_eq$ ?v0) (fun_app$a ?v1 ?v3))) ))
(assert (forall ((?v0 Enat$) (?v1 Enat$) (?v2 Enat_enat_fun$) (?v3 Enat$)) (=> (and (fun_app$ (less_eq$ ?v0) ?v1) (and (fun_app$ (less_eq$ (fun_app$a ?v2 ?v1)) ?v3) (forall ((?v4 Enat$) (?v5 Enat$)) (=> (fun_app$ (less_eq$ ?v4) ?v5) (fun_app$ (less_eq$ (fun_app$a ?v2 ?v4)) (fun_app$a ?v2 ?v5))) ))) (fun_app$ (less_eq$ (fun_app$a ?v2 ?v0)) ?v3)) ))
(assert (forall ((?v0 Enat$) (?v1 Enat$) (?v2 Enat$)) (=> (and (fun_app$ (less_eq$ ?v0) ?v1) (= ?v1 ?v2)) (fun_app$ (less_eq$ ?v0) ?v2)) ))
(assert (forall ((?v0 Enat$) (?v1 Enat$) (?v2 Enat_enat_fun$) (?v3 Enat$)) (=> (and (fun_app$ (less_eq$ ?v0) ?v1) (and (= (fun_app$a ?v2 ?v1) ?v3) (forall ((?v4 Enat$) (?v5 Enat$)) (=> (fun_app$ (less_eq$ ?v4) ?v5) (fun_app$ (less_eq$ (fun_app$a ?v2 ?v4)) (fun_app$a ?v2 ?v5))) ))) (fun_app$ (less_eq$ (fun_app$a ?v2 ?v0)) ?v3)) ))
(assert (forall ((?v0 Enat$) (?v1 Enat$)) (=> (= ?v0 ?v1) (fun_app$ (less_eq$ ?v0) ?v1)) ))
(assert (forall ((?v0 Enat$) (?v1 Enat$) (?v2 Enat$)) (=> (and (= ?v0 ?v1) (fun_app$ (less_eq$ ?v1) ?v2)) (fun_app$ (less_eq$ ?v0) ?v2)) ))
(assert (forall ((?v0 Enat$) (?v1 Enat_enat_fun$) (?v2 Enat$) (?v3 Enat$)) (=> (and (= ?v0 (fun_app$a ?v1 ?v2)) (and (fun_app$ (less_eq$ ?v2) ?v3) (forall ((?v4 Enat$) (?v5 Enat$)) (=> (fun_app$ (less_eq$ ?v4) ?v5) (fun_app$ (less_eq$ (fun_app$a ?v1 ?v4)) (fun_app$a ?v1 ?v5))) ))) (fun_app$ (less_eq$ ?v0) (fun_app$a ?v1 ?v3))) ))
(assert (forall ((?v0 Enat_enat_bool_fun_fun$) (?v1 Enat$) (?v2 Enat$)) (=> (and (forall ((?v3 Enat$) (?v4 Enat$)) (=> (fun_app$ (less_eq$ ?v3) ?v4) (fun_app$ (fun_app$b ?v0 ?v3) ?v4)) ) (forall ((?v3 Enat$) (?v4 Enat$)) (=> (fun_app$ (fun_app$b ?v0 ?v4) ?v3) (fun_app$ (fun_app$b ?v0 ?v3) ?v4)) )) (fun_app$ (fun_app$b ?v0 ?v1) ?v2)) ))
(assert (forall ((?v0 Enat$) (?v1 Enat$)) (=> (and (=> (fun_app$ (less_eq$ ?v0) ?v1) false) (=> (fun_app$ (less_eq$ ?v1) ?v0) false)) false) ))
(assert (forall ((?v0 Enat$) (?v1 Enat$)) (= (= ?v0 ?v1) (and (fun_app$ (less_eq$ ?v0) ?v1) (fun_app$ (less_eq$ ?v1) ?v0))) ))
(assert (forall ((?v0 Enat$)) (=> (and (=> (= ?v0 zero$) false) (=> (not (= ?v0 zero$)) false)) false) ))
(assert (forall ((?v0 Enat$) (?v1 Enat$)) (=> (fun_app$ (less_eq$ ?v0) ?v1) (= (fun_app$a (min$ ?v0) ?v1) ?v0)) ))
(assert (forall ((?v0 Enat$) (?v1 Enat$)) (=> (fun_app$ (less_eq$ ?v0) ?v1) (= (fun_app$a (min$ ?v1) ?v0) ?v0)) ))
(assert (forall ((?v0 Enat$) (?v1 Enat$)) (= (fun_app$a (min$ ?v0) ?v1) (ite (fun_app$ (less_eq$ ?v0) ?v1) ?v0 ?v1)) ))
(assert (forall ((?v0 Enat$) (?v1 Enat$)) (= (= (fun_app$a (plus$ ?v0) ?v1) zero$) (and (= ?v0 zero$) (= ?v1 zero$))) ))
(assert (forall ((?v0 Enat$) (?v1 Enat$)) (fun_app$ (less_eq$ ?v0) (fun_app$a (plus$ ?v1) ?v0)) ))
(assert (forall ((?v0 Enat$) (?v1 Enat$)) (fun_app$ (less_eq$ ?v0) (fun_app$a (plus$ ?v0) ?v1)) ))
(assert (forall ((?v0 Enat$) (?v1 Enat$) (?v2 Enat$)) (=> (fun_app$ (less_eq$ ?v0) ?v1) (fun_app$ (less_eq$ (fun_app$a (minus$ ?v0) ?v2)) (fun_app$a (minus$ ?v1) ?v2))) ))
(assert (forall ((?v0 Enat$) (?v1 A_llist$) (?v2 A_llist$)) (= (ldrop$ ?v0 (lappend$ ?v1 ?v2)) (ite (fun_app$ (less$ ?v0) (llength$ ?v1)) (lappend$ (ldrop$ ?v0 ?v1) ?v2) (ldrop$ (fun_app$a (minus$ ?v0) (llength$ ?v1)) ?v2))) ))
(assert (forall ((?v0 Enat$) (?v1 A_llist$)) (= (llength$ (ldrop$ ?v0 ?v1)) (ite (= ?v0 infinity$) zero$ (fun_app$a (minus$ (llength$ ?v1)) ?v0))) ))
(assert (forall ((?v0 Enat$) (?v1 Enat$) (?v2 Enat$)) (= (fun_app$ (less$ ?v0) (fun_app$a (min$ ?v1) ?v2)) (and (fun_app$ (less$ ?v0) ?v1) (fun_app$ (less$ ?v0) ?v2))) ))
(assert (forall ((?v0 Enat$)) (! (= (fun_app$ (less_eq$ ?v0) infinity$) true) :pattern ((less_eq$ ?v0)))))
(assert (forall ((?v0 Enat$)) (! (= (fun_app$ (less_eq$ infinity$) ?v0) (= ?v0 infinity$)) :pattern ((fun_app$ (less_eq$ infinity$) ?v0)))))
(assert (forall ((?v0 Enat$)) (= (fun_app$ (less$ zero$) ?v0) (not (= ?v0 zero$))) ))
(assert (forall ((?v0 Enat$)) (! (= (fun_app$a (plus$ ?v0) infinity$) infinity$) :pattern ((plus$ ?v0)))))
(assert (forall ((?v0 Enat$)) (! (= (fun_app$a (plus$ infinity$) ?v0) infinity$) :pattern ((fun_app$a (plus$ infinity$) ?v0)))))
(assert (forall ((?v0 Enat$)) (! (= (fun_app$ (less$ ?v0) infinity$) (not (= ?v0 infinity$))) :pattern ((less$ ?v0)))))
(assert (forall ((?v0 Enat$)) (! (= (fun_app$ (less$ infinity$) ?v0) false) :pattern ((fun_app$ (less$ infinity$) ?v0)))))
(assert (forall ((?v0 Enat$)) (! (= (fun_app$a (minus$ infinity$) ?v0) infinity$) :pattern ((fun_app$a (minus$ infinity$) ?v0)))))
(assert (forall ((?v0 Enat$)) (= (fun_app$a (min$ ?v0) infinity$) ?v0) ))
(assert (forall ((?v0 Enat$)) (= (fun_app$a (min$ infinity$) ?v0) ?v0) ))
(assert (forall ((?v0 Enat$)) (! (=> (not (= ?v0 infinity$)) (= (fun_app$a (minus$ ?v0) ?v0) zero$)) :pattern ((minus$ ?v0)))))
(assert (forall ((?v0 Enat$) (?v1 A_llist$)) (= (lfinite$ (ldrop$ ?v0 ?v1)) (or (lfinite$ ?v1) (= ?v0 infinity$))) ))
(assert (forall ((?v0 Enat$) (?v1 A_llist$)) (= (lfinite$ (ltake$ ?v0 ?v1)) (or (lfinite$ ?v1) (fun_app$ (less$ ?v0) infinity$))) ))
(assert (forall ((?v0 Enat$) (?v1 Enat$)) (! (= (fun_app$ (less$ ?v0) ?v1) (and (fun_app$ (less_eq$ ?v0) ?v1) (not (= ?v1 ?v0)))) :pattern ((fun_app$ (less$ ?v0) ?v1)))))
(assert (forall ((?v0 Enat$) (?v1 Enat$)) (! (= (fun_app$ (less$ ?v0) ?v1) (and (fun_app$ (less_eq$ ?v0) ?v1) (not (= ?v0 ?v1)))) :pattern ((fun_app$ (less$ ?v0) ?v1)))))
(assert (forall ((?v0 Enat$) (?v1 Enat$)) (! (= (fun_app$ (less$ ?v0) ?v1) (and (fun_app$ (less_eq$ ?v0) ?v1) (not (= ?v0 ?v1)))) :pattern ((fun_app$ (less$ ?v0) ?v1)))))
(assert (forall ((?v0 Enat$) (?v1 Enat$)) (! (= (fun_app$ (less$ ?v0) ?v1) (and (fun_app$ (less_eq$ ?v0) ?v1) (not (fun_app$ (less_eq$ ?v1) ?v0)))) :pattern ((fun_app$ (less$ ?v0) ?v1)))))
(assert (forall ((?v0 Enat$) (?v1 Enat$)) (! (= (fun_app$ (less_eq$ ?v0) ?v1) (or (fun_app$ (less$ ?v0) ?v1) (= ?v1 ?v0))) :pattern ((fun_app$ (less_eq$ ?v0) ?v1)))))
(assert (forall ((?v0 Enat$) (?v1 Enat$)) (! (= (fun_app$ (less_eq$ ?v0) ?v1) (or (fun_app$ (less$ ?v0) ?v1) (= ?v0 ?v1))) :pattern ((fun_app$ (less_eq$ ?v0) ?v1)))))
(assert (forall ((?v0 Enat$) (?v1 Enat$)) (! (= (fun_app$ (less_eq$ ?v0) ?v1) (or (fun_app$ (less$ ?v0) ?v1) (= ?v0 ?v1))) :pattern ((fun_app$ (less_eq$ ?v0) ?v1)))))
(assert (forall ((?v0 Enat$) (?v1 Enat$)) (= (not (fun_app$ (less$ ?v0) ?v1)) (fun_app$ (less_eq$ ?v1) ?v0)) ))
(assert (forall ((?v0 Enat$) (?v1 Enat$)) (= (not (fun_app$ (less_eq$ ?v0) ?v1)) (fun_app$ (less$ ?v1) ?v0)) ))
(assert (forall ((?v0 Enat$) (?v1 Enat$) (?v2 Enat_enat_fun$) (?v3 Enat$)) (=> (and (fun_app$ (less$ ?v0) ?v1) (and (fun_app$ (less_eq$ (fun_app$a ?v2 ?v1)) ?v3) (forall ((?v4 Enat$) (?v5 Enat$)) (=> (fun_app$ (less$ ?v4) ?v5) (fun_app$ (less$ (fun_app$a ?v2 ?v4)) (fun_app$a ?v2 ?v5))) ))) (fun_app$ (less$ (fun_app$a ?v2 ?v0)) ?v3)) ))
(assert (forall ((?v0 Enat$) (?v1 Enat_enat_fun$) (?v2 Enat$) (?v3 Enat$)) (=> (and (fun_app$ (less$ ?v0) (fun_app$a ?v1 ?v2)) (and (fun_app$ (less_eq$ ?v2) ?v3) (forall ((?v4 Enat$) (?v5 Enat$)) (=> (fun_app$ (less_eq$ ?v4) ?v5) (fun_app$ (less_eq$ (fun_app$a ?v1 ?v4)) (fun_app$a ?v1 ?v5))) ))) (fun_app$ (less$ ?v0) (fun_app$a ?v1 ?v3))) ))
(assert (forall ((?v0 Enat$) (?v1 Enat$) (?v2 Enat$)) (=> (and (fun_app$ (less$ ?v0) ?v1) (fun_app$ (less_eq$ ?v2) ?v0)) (fun_app$ (less$ ?v2) ?v1)) ))
(assert (forall ((?v0 Enat$) (?v1 Enat$) (?v2 Enat$)) (=> (and (fun_app$ (less$ ?v0) ?v1) (fun_app$ (less_eq$ ?v1) ?v2)) (fun_app$ (less$ ?v0) ?v2)) ))
(assert (forall ((?v0 Enat$) (?v1 Enat$) (?v2 Enat$)) (=> (and (fun_app$ (less$ ?v0) ?v1) (fun_app$ (less_eq$ ?v1) ?v2)) (fun_app$ (less$ ?v0) ?v2)) ))
(assert (forall ((?v0 Enat$) (?v1 Enat$)) (=> (fun_app$ (less$ ?v0) ?v1) (fun_app$ (less_eq$ ?v0) ?v1)) ))
(assert (forall ((?v0 Enat$) (?v1 Enat$)) (=> (fun_app$ (less$ ?v0) ?v1) (fun_app$ (less_eq$ ?v0) ?v1)) ))
(assert (forall ((?v0 Enat$) (?v1 Enat$)) (=> (fun_app$ (less$ ?v0) ?v1) (fun_app$ (less_eq$ ?v0) ?v1)) ))
(assert (forall ((?v0 Enat$) (?v1 Enat$) (?v2 Enat_enat_fun$) (?v3 Enat$)) (=> (and (fun_app$ (less_eq$ ?v0) ?v1) (and (fun_app$ (less$ (fun_app$a ?v2 ?v1)) ?v3) (forall ((?v4 Enat$) (?v5 Enat$)) (=> (fun_app$ (less_eq$ ?v4) ?v5) (fun_app$ (less_eq$ (fun_app$a ?v2 ?v4)) (fun_app$a ?v2 ?v5))) ))) (fun_app$ (less$ (fun_app$a ?v2 ?v0)) ?v3)) ))
(assert (forall ((?v0 Enat$) (?v1 Enat_enat_fun$) (?v2 Enat$) (?v3 Enat$)) (=> (and (fun_app$ (less_eq$ ?v0) (fun_app$a ?v1 ?v2)) (and (fun_app$ (less$ ?v2) ?v3) (forall ((?v4 Enat$) (?v5 Enat$)) (=> (fun_app$ (less$ ?v4) ?v5) (fun_app$ (less$ (fun_app$a ?v1 ?v4)) (fun_app$a ?v1 ?v5))) ))) (fun_app$ (less$ ?v0) (fun_app$a ?v1 ?v3))) ))
(check-sat)
(exit)

